SCIP Status        : problem creation / modification
Total Time         :       0.04
  reading          :       0.04
Original Problem   :
  Problem name     : main4.zpl
  Variables        : 3195 (3195 binary, 0 integer, 0 implicit integer, 0 continuous)
  Constraints      : 0 initial, 3265 maximal
  Objective        : minimize, 3195 non-zeros (abs.min = 0.00136, abs.max = 5700)
